n_res = 4;
rc = [ 40, 25, 25, 19 ];
n_tasks = 30;
d = [ 4, 1, 5, 9, 10, 6, 1, 9, 2, 8, 8, 8, 2, 2, 10, 8, 10, 2, 10, 5, 3, 6, 5, 10, 10, 8, 10, 2, 10, 3 ];
rr = [| 4, 5, 4, 0, 0, 9, 0, 9, 0, 0, 0, 0, 4, 8, 3, 7, 10, 0, 0, 3, 2, 9, 2, 0, 5, 0, 0, 0, 0, 3
      | 8, 0, 0, 3, 4, 0, 4, 5, 10, 0, 5, 0, 10, 0, 2, 5, 3, 0, 0, 0, 2, 0, 5, 0, 6, 5, 5, 0, 8, 0
      | 0, 0, 0, 0, 3, 2, 0, 0, 7, 7, 10, 0, 0, 3, 4, 0, 0, 1, 2, 5, 0, 10, 0, 0, 0, 0, 0, 3, 0, 5
      | 0, 5, 3, 3, 0, 2, 0, 0, 0, 3, 0, 4, 7, 0, 5, 0, 0, 0, 7, 0, 9, 3, 4, 2, 10, 0, 0, 1, 0, 0 |];
suc = [ { 2 }, 
        { 1 }, 
        { 4 }, 
        { 3 }, 
        { 6 }, 
        { 5 }, 
        { 8 }, 
        { 7 }, 
        { 10 }, 
        { 9 }, 
        { 12 }, 
        { 11 }, 
        { 14 }, 
        { 13 }, 
        { 16 }, 
        { 15 }, 
        { 18 }, 
        { 17 }, 
        { 20 }, 
        { 19 }, 
        { 22 }, 
        { 21 }, 
        { 24 }, 
        { 23 }, 
        { 26 }, 
        { 25 }, 
        { 28 }, 
        { 27 }, 
        { 30 }, 
        { 29 }]; 
